proyfinal/src/viki/013/experimentInOfficeAgust.take6.output/8db779ca-dc1e-43f1-92d6-a7b2a5915faa.als.out
Reading from standard input... Use '--help' for help.
============================[ Problem Statistics ]=============================
|                                                                             |
|  Number of variables:         87638                                         |
|  Number of clauses:          161767                                         |
|  Parse time:                   0.04 s                                       |
|                                                                             |
============================[ Search Statistics ]==============================
| Conflicts |          ORIGINAL         |          LEARNT          | Progress |
|           |    Vars  Clauses Literals |    Limit  Clauses Lit/Cl |          |
===============================================================================
|       100 |   63993   110920   277138 |    40670      100     40 | 26.980 % |
|       250 |   63992   110920   277138 |    44737      249     47 | 26.981 % |
|       475 |   63992   110876   277048 |    49211      474     51 | 26.981 % |
|       812 |   63992   110876   277048 |    54132      811     69 | 26.981 % |
|      1318 |   63992   110876   277048 |    59545     1317     60 | 26.982 % |
|      2077 |   63991   110871   277036 |    65500     2075     71 | 26.983 % |
|      3216 |   63991   110871   277036 |    72050     3214    143 | 26.983 % |
|      4924 |   63991   110871   277036 |    79255     4922    129 | 26.983 % |
|      7486 |   63991   110871   277036 |    87181     7484    122 | 26.983 % |
|     11330 |   63943   110636   276513 |    95899    10800    108 | 27.037 % |
|     17096 |   63878   110444   276072 |   105489    16377    102 | 27.112 % |
===============================================================================
restarts              : 63
conflicts             : 17637          (6385 /sec)
decisions             : 68734          (0.00 % random) (24883 /sec)
propagations          : 24891412       (9011324 /sec)
conflict literals     : 1837045        (45.03 % deleted)
Memory used           : 41.04 MB
CPU time              : 2.76224 s

INDETERMINATE
